results_rootrelaxation/bin012_080_023.srr.sol
solution status: optimal solution found
objective value:                                17.75
_var615_                                         0.25 	(obj:2)
_var728_                            0.250000000000001 	(obj:2)
_var742_                                         0.25 	(obj:1)
_var752_                                          0.5 	(obj:1)
_var758_                                          0.5 	(obj:2)
_var782_                                         0.25 	(obj:1)
_var783_                                         0.25 	(obj:3)
_var788_                                         0.25 	(obj:2)
_var793_                            0.249999999999999 	(obj:0)
_var806_                            0.249999999999999 	(obj:3)
_var810_                                         0.25 	(obj:2)
_var811_                            0.250000000000001 	(obj:2)
_var815_                                         0.25 	(obj:0)
_var819_                                         0.25 	(obj:2)
_var825_                                         0.25 	(obj:1)
_var827_                                          0.5 	(obj:3)
_var834_                                          0.5 	(obj:1)
_var864_                                         0.25 	(obj:2)
_var866_                            0.250000000000001 	(obj:2)
_var867_                                         0.25 	(obj:1)
_var872_                                         0.25 	(obj:2)
_var873_                                         0.25 	(obj:2)
_var879_                                         0.25 	(obj:1)
_var880_                                         0.25 	(obj:1)
_var884_                                          0.5 	(obj:1)
_var885_                                         0.25 	(obj:2)
_var886_                            0.249999999999999 	(obj:1)
_var888_                                         0.25 	(obj:1)
_var889_                                         0.25 	(obj:1)
_var892_                                          0.5 	(obj:2)
_var893_                                         0.25 	(obj:1)
_var897_                                         0.25 	(obj:2)
_var905_                                         0.25 	(obj:2)
_var906_                                         0.25 	(obj:2)
_var913_                                         0.25 	(obj:2)
_var919_                                         0.25 	(obj:2)
_var922_                            0.249999999999999 	(obj:1)
_var927_                                         0.25 	(obj:2)
